WARNING: for repeatability, setting FPU to use double precision
============================[ Problem Statistics ]=============================
|                                                                             |
|  Number of variables:           100                                         |
|  Number of clauses:             449                                         |
|  Parse time:                   0.00 s                                       |
|  Eliminated clauses:           0.00 Mb                                      |
|  Simplification time:          0.00 s                                       |
|                                                                             |
============================[ Search Statistics ]==============================
| Conflicts |          ORIGINAL         |          LEARNT          | Progress |
|           |    Vars  Clauses Literals |    Limit  Clauses Lit/Cl |          |
===============================================================================
|       100 |      99      441     1323 |      161      100      8 |  0.010 % |
===============================================================================
restarts              : 2
conflicts             : 127            (61800 /sec)
decisions             : 169            (0.00 % random) (82238 /sec)
propagations          : 2771           (1348418 /sec)
conflict literals     : 946            (15.91 % deleted)
Memory used           : 13.00 MB
CPU time              : 0.002055 s

SATISFIABLE
